92
[[-1, 0, 0, 37167, 34958, 0, 0, 0, 0, 0, 0, 0, 0, 0, 0, 10557, 0, 1128568687, 0, -1141306910, 27017, 0, 0, 0, 0, 0, 0, 27284, 0, 20556, -787988707, 0, 43294, 0, 0, 0, 0, 34727, 0, 0, 0, 0, 0, 0, 1979174122, 0, 0, 0, 37284, 0, 0, 0, 28951, 0, 38236, 41730, 0, 0, 34388, 0, 0, 0, 0, 0, 0, 6112, 0, 0, 39495, 0, -291598441, 0, 0, 0, 0, 0, 36619, -1371605228, 0, 0, 0, 0, 38714, 0, 0, 0, 0, 0, 0, 0, 24211, 0],[0, -1, 0, 25463, 0, 0, 0, 0, 0, 0, 11791, 1337058615, 0, 0, 0, 0, 0, 0, 0, 0, 20455, 8583, 0, 31708, 0, 0, 0, 32038, 0, 0, 19934, 37980, 0, 0, 35727, 0, 0, 0, 14031, 36579, 42509, 34293, 0, 0, 0, 0, 0, 0, 0, 0, 0, 0, 29511, 0, 0, 0, 16532, 21353, 13002, 31677, 0, 0, 0, 26399, 0, 0, 0, 0, 0, 13410, 0, 23867, 0, 0, 35206, 27268, 0, 33277, 0, 0, 0, 39824, 0, 0, 6944, 0, 44880, 0, 0, 31688, 0, 0],[0, 0, -1, 0, 0, 0, 26371, 0, 0, 0, 0, 0, 0, 32015, -1665770699, 0, 0, 0, 0, 774473064, 0, 0, 0, 0, 0, 0, 24899, 37165, 0, 0, 0, 0, 0, 20269, 0, 0, 0, 0, 0, 36668, 42713, 0, 0, 0, 0, 0, 0, 0, 0, 0, 17880, 0, 0, 0, 0, 0, 0, 0, 22049, 0, 0, 36993, 0, 0, 46087, 0, 0, 0, 0, 0, 26192, 0, 0, 0, 0, 35014, 0, 0, 0, 6590, 0, 0, 46015, 0, 39482, 0, 0, 0, 0, 0, 0, 0],[37167, 25463, 0, -1, 0, 20756, 0, 37217, 0, 0, 0, 197299346, 0, 0, 41297, 0, 0, -1660009275, 0, 1481569484, 0, 0, 39729, 1300615445, 36506, 0, 0, 0, 0, 0, 733466156, 0, 0, 0, 1558529487, 42006, 0, 0, 0, 0, 0, 54005600, 0, 0, -776658540, 0, 21143, 0, 0, 41393, 0, 0, 0, 0, 0, 0, 0, 0, 0, 1182095456, 0, 0, 0, 1545602878, 0, 0, 0, 0, 0, 0, 1965371449, 0, 24267, 0, 0, 0, 0, 2138753782, 0, 0, 0, 0, 0, 0, 0, 0, 1605729480, 0, 0, 0, 0, 0],[34958, 0, 0, 0, -1, 0, 0, 8142, 0, 0, 35463, 41562, 15241, 38715, 11678, 0, 29513, 0, 0, 0, 81661752, 0, 0, 0, 0, 0, 0, 478266090, 0, 0, 44837, 0, 1644630441, 0, 0, 0, 0, 0, 24772, 0, 0, 0, 45781, 0, 43675, 0, 0, 0, 0, 41517, 0, 0, 0, 0, 0, 680167087, 0, 19481, 0, 0, 0, 0, 0, 17829, 0, 0, 0, 0, 0, 0, 0, 0, 33337, 0, 0, 0, 0, 0, 0, 0, 0, 0, 0, 0, 10538, 0, 0, 0, 0, 0, 0, 41349],[0, 0, 0, 20756, 0, -1, 210, 2093303708, 39013, 34685, 0, 0, 0, 0, 0, 0, 0, 0, 0, 0, 34913, 0, 23692, 43304, 24357287, 0, 0, 0, 8731, 0, 16063, 0, 16373, 0, 0, 0, 14112, 0, 22975, 0, 0, 0, 0, 37414, 0, 10883, 678780329, 44737, 0, 2135553700, 45825, 0, 9554, 0, 38317, 0, 0, 0, 0, 0, 0, 20423, 0, 0, 0, 39926, 30923, 0, 0, 34627, 0, 0, 0, 2407, 0, 0, 0, 0, 0, 0, 0, 24975, 0, 15732, 0, 0, 0, 0, 0, 0, 0, 18299],[0, 0, 26371, 0, 0, 210, -1, 0, 725637278, 277005219, 0, 0, 38682, 0, 568639495, 0, 0, 41501, 10148, -1685056066, 30040, 29551, 0, 0, 0, 0, 0, 0, 0, 0, 0, 0, 37999, 0, 0, 0, 0, 38179, 0, 0, 0, 0, 5177, 0, 20952, 1890523461, 0, 438312964, 0, 0, 17112613, 41305, 37161, 0, 0, 0, 38210, 38788, 9877, 0, 0, 1624421844, 0, 45223, 0, 22748, 0, 0, 0, 0, 45175, 0, 0, 446908296, 0, 39964, 0, 0, 0, 0, 31179, 0, 0, 0, 0, 0, 0, 24486, 0, 38994, 0, 0],[0, 0, 0, 37217, 8142, 2093303708, 0, -1, 0, 0, 0, 0, 0, 0, 0, 0, 0, 0, 0, 0, 0, 38795, 0, 0, 0, 0, 41876, 32517, -1421322972, 0, 0, 0, 35870, 0, 0, 518883421, 0, 0, 0, 0, 0, 13058, 0, -1074686785, 0, 0, 39579, 0, 0, 25856, 31619, 0, 0, 42716, 0, 0, 0, 0, 0, 0, 0, 0, 15738, 13353, 0, 0, 0, 0, 31030, 0, 0, 0, 919537791, 0, 0, 0, 0, 0, 0, 0, 0, 44119, 0, 0, 42191, 0, 0, 0, 0, 0, 44645, 0],[0, 0, 0, 0, 0, 39013, 725637278, 0, -1, 0, 11403, 0, 0, 34396, 35232, 0, 0, 0, 0, 0, 0, 35673, 0, 41013, 35698, 0, 0, 0, 1136133111, 0, 0, 0, 0, 0, 26758, 41619, 1246207570, 43136, 30276, 39387, 0, 39732, 0, 11617, 0, 0, 0, 0, 0, 0, 0, 0, 0, 0, 0, 0, 0, 0, 0, 0, 0, 0, 43791, 0, 0, 0, 0, 16903, 0, 0, 0, 0, 0, 0, 45006, 0, 0, 0, 28957, 42569, 0, 0, 0, 0, 45327, 0, 0, -1428999326, 0, 0, 0, 0],[0, 0, 0, 0, 0, 34685, 277005219, 0, 0, -1, 0, 0, 0, 39512, 0, 0, 0, 0, 0, 0, 13354, 0, 36528, 0, 0, 0, 0, 0, 0, 44407, 0, 0, 0, 0, 0, 0, 46298, 0, 33724, 28005, 33601, 30224, 22152, 8195, 29249, 0, 0, 0, 0, 34427, 0, -2118840446, 0, 0, 0, 44867, 0, 0, 0, 0, 0, 0, 0, 0, 0, 0, 0, 0, 0, 0, 0, 0, 0, 0, 0, 0, 0, 0, 0, 0, 0, 10865, 0, 0, 0, 8847, 0, 0, 0, 0, 0, 0],[0, 11791, 0, 0, 35463, 0, 0, 0, 11403, 0, -1, 0, 0, 0, 0, 31932, 0, 0, 0, 0, 0, 0, 16327, 0, 0, 0, 0, 0, 0, 0, 0, 0, 30403, 0, 0, 0, 0, 37836, 0, 0, 2065373470, 0, 0, 0, 0, 0, 31984, 25822, 0, 0, 0, 0, 41152, 0, 0, 42009, 0, 0, 0, 0, 0, 0, 0, 0, 0, 0, 0, 1213559363, 0, 0, 0, 0, 0, 0, 0, 0, 0, 0, 0, 29526, 0, 0, 0, 0, 0, 0, 0, 0, 43571, 0, 40255, 0],[0, 1337058615, 0, 197299346, 41562, 0, 0, 0, 0, 0, 0, -1, 0, 17439, 0, 0, 0, 18647, 0, 0, 0, 1542338937, 0, 0, 0, 0, 0, 39709, 0, 8396, 0, 156031079, 0, 42775, 0, 0, 45665, 0, -1076689013, -510081308, 39259, 0, 0, 0, 0, 0, 0, 0, 29087, 29361, 0, 0, 0, 29220, 40566, 19292, 0, 0, 0, 0, 0, 0, 29675, 0, 0, 18043, 0, 20356, 26484, -2140264306, 0, 0, 0, 0, 0, 0, 0, 0, 0, 0, 20481, 0, 40975, 0, 0, 19224, 20019, 0, 45313, 0, 0, 0],[0, 0, 0, 0, 15241, 0, 38682, 0, 0, 0, 0, 0, -1, 0, 1942683059, 39106, 0, 0, 0, 0, 0, 0, 43847, 0, 28522, 0, 0, 24441, 0, 0, 0, 17188, 0, 0, 0, 0, 0, 0, 0, 0, 0, 0, 0, 0, 0, 0, 27700, 0, 0, 31025, 0, 0, 0, 0, 0, 41568, 33387, 0, 0, 0, 0, 0, 0, 0, 0, 0, 0, 0, 0, 45444, 0, 0, 0, 0, 26610, 0, 0, 44518, 0, 0, 0, 0, 32301, 0, 24543, 0, 0, 1645184561, 0, 36499, 25725, 885638864],[0, 0, 32015, 0, 38715, 0, 0, 0, 34396, 39512, 0, 17439, 0, -1, 357338113, 0, 298131790, 0, 0, 34979, 0, 0, 0, 0, 0, 0, 178602707, 25003, 3589, 0, 0, 0, 0, 0, 0, 0, 0, 0, 0, 0, 42932, 0, 0, 19545, 0, 0, 0, 31669, 17812, 0, 0, 0, 0, 31721, 0, 0, 0, 0, 0, 0, 40688, 0, 0, 0, 46642945, 0, 0, 0, 36474, 46068, 0, 0, 0, 0, 0, 0, 0, 0, 0, 0, 0, 30215, 0, 21124, 0, 0, 0, 0, 0, 33753, 8548, 0],[0, 0, -1665770699, 41297, 11678, 0, 568639495, 0, 35232, 0, 0, 0, 1942683059, 357338113, -1, 43182, 0, 0, 1386372128, 0, 41379, 0, 45265505, 37206, 0, 0, 0, 30663, 0, 0, 0, 0, 0, 0, 0, 28498, 41996, 0, 0, 26341, 0, 0, 0, 23214, 0, 0, 0, 0, 0, 0, 30687, 0, 0, 0, 0, 24970, 0, 0, 0, 40349, 0, 0, 0, 0, 21590, 0, 0, 0, 0, 0, 0, 0, 0, 0, 0, 0, 0, 0, 0, 0, 0, 22879, 0, 0, 16416, 0, 43896, 45294, 0, 22976, 38786, 0],[10557, 0, 0, 0, 0, 0, 0, 0, 0, 0, 31932, 0, 39106, 0, 43182, -1, 0, 0, 0, 0, 0, 0, 0, 17680, 0, 39610, 43375, 0, 0, 0, 0, 0, 0, 35579, 0, 0, 39744, 0, 37892, 12305, 0, 45811, 0, 0, 0, 23637, 0, 44938, 0, 0, 10455, 13615, 0, 43102, 0, 0, 0, 0, 0, 0, 0, 0, 0, 34897, 46330, 0, 0, 0, 0, 0, 429759950, 0, 0, 0, 43788, 0, 0, 38413, 32471, 16804, 0, 0, 643960077, 0, 0, 25936, 0, 0, 0, 0, 0, 0],[0, 0, 0, 0, 29513, 0, 0, 0, 0, 0, 0, 0, 0, 298131790, 0, 0, -1, 19527, 0, 0, 23063, 46245, 0, 14830, 0, 0, 0, 0, 0, 20730, 0, 0, 0, 0, 0, 0, 0, 39178, 0, 34936, 0, 32979, 0, 0, 44668, 33180, 0, 0, 0, 0, 0, 0, 0, 0, 0, 0, 0, 0, 0, 0, 0, 0, 0, 13215, 34963, 0, 0, 0, 0, 0, 0, 0, 0, 20516, 0, 0, 0, 0, 0, 0, 24874, 0, 0, 0, 0, 0, 38215, 0, 34062, 0, 0, 0],[1128568687, 0, 0, -1660009275, 0, 0, 41501, 0, 0, 0, 0, 18647, 0, 0, 0, 0, 19527, -1, 0, 0, 0, 45327, 0, 0, 0, 0, 0, -1724710845, 33260, -1791066245, 14119, 0, -1697998334, 36522, 0, 30802, 0, -1653020665, 43957, 0, 0, 0, 0, 38749, 0, 13569, 0, 0, 0, 0, 0, 0, 0, 44905, -1166474701, 0, 0, 0, 0, 0, 0, 0, 0, 20364, 32542, 0, 0, 0, 0, 0, 0, 0, 0, 0, 0, 0, 0, 36686, 0, 0, 0, 0, 39189, 0, 14687, 37949, 5510, 0, 0, 9617, 0, 0],[0, 0, 0, 0, 0, 0, 10148, 0, 0, 0, 0, 0, 0, 0, 1386372128, 0, 0, 0, -1, 18266, 0, 23465, 0, 22344, 40563, 38799, 29835, 43559, 27670, 0, 0, 0, 9005, 0, 0, 0, 0, 0, 0, 41514, 0, 41463, 0, 0, 0, 0, 41698, 0, 0, 0, 28397, 1125828859, 43574, 0, 0, 18994, 0, 37185, 0, 0, 0, 0, 0, 0, 0, 0, 42768, 0, 0, 0, 0, 0, 0, 28385, 0, 0, 0, 0, 0, 44751, 0, 0, 31474, 0, 0, 0, 0, 33748, 42372, 22359, 0, 0],[-1141306910, 0, 774473064, 1481569484, 0, 0, -1685056066, 0, 0, 0, 0, 0, 0, 34979, 0, 0, 0, 0, 18266, -1, 0, 0, 0, 42678, 0, 0, 26553, 0, 0, 44737, 0, 37526, 0, -1880298280, 43875, 0, 21796, 34900, 0, 0, 0, 0, 0, 0, 27767, 0, 0, 0, 0, 0, 0, 30873, 0, 31637, 0, 14385, 14370, 18060, -1034203974, 0, 0, 36341, 0, 21757, 0, 0, 0, 35015, 0, 41502, 0, 0, 25217, 0, 0, 0, 35907, 0, 0, 0, 0, 0, 34855, 0, 0, 0, 0, 0, 0, 24719, 0, 45592],[27017, 20455, 0, 0, 81661752, 34913, 30040, 0, 0, 13354, 0, 0, 0, 0, 41379, 0, 23063, 0, 0, 0, -1, 0, 0, 0, 41592, 0, 0, 0, 0, 0, 0, 35954, 0, 31152, 0, 0, 29111, 1861023455, 25658308, 0, 0, 18447, 0, 0, 0, 0, 0, 0, 0, 0, 0, 0, 456257436, 0, 0, 0, 0, 0, 0, 0, 0, 0, 0, 0, 0, 0, 0, 0, 0, 0, 0, 0, 32149, 34428, 0, 0, 1837785810, 0, 0, 35915, 0, 0, 0, 0, 1344126627, 0, 0, 0, 0, 0, 0, 0],[0, 8583, 0, 0, 0, 0, 29551, 38795, 35673, 0, 0, 1542338937, 0, 0, 0, 0, 46245, 45327, 23465, 0, 0, -1, 0, 24142, 0, 0, 40588, 16598, 0, 0, 8924, 0, 0, 0, 0, 0, 0, 0, 25715, 0, 0, 46340, 0, 0, 0, 0, 0, 0, 19287, 0, 45933, 0, 36400, 829336277, 31000, 0, 0, 0, 0, 33441, 0, 0, 1899455802, 0, 44494, 0, 0, 24787, 16681, 12167, 23891, 0, 26243, 0, 0, 1478234497, 11544, 0, 0, 44967, 0, 0, 0, 0, 0, 0, 0, 0, 0, 0, 0, 0],[0, 0, 0, 39729, 0, 23692, 0, 0, 0, 36528, 16327, 0, 43847, 0, 45265505, 0, 0, 0, 0, 0, 0, 0, -1, 0, 0, 0, 0, 0, 0, 0, 0, 0, 0, 0, 38842, 0, 36210, 0, 0, 33806, 0, 0, 0, 0, 0, 0, 0, 0, 0, 18943, 21988, 0, 34777, 0, 0, 0, 16089, 0, 0, 0, 44304, 0, 42174, 0, 0, 0, 0, 30271, 45090, 0, 0, 0, 0, 43540, 36425, 0, 35433, 19256, 0, 0, 0, 6497, 0, 0, 0, 0, 0, 0, 0, 0, 0, 0],[0, 31708, 0, 1300615445, 0, 43304, 0, 0, 41013, 0, 0, 0, 0, 0, 37206, 17680, 14830, 0, 22344, 42678, 0, 24142, 0, -1, 0, 0, 0, 0, 0, 0, 32037, 0, 0, 6080, 0, 0, 0, 42697, 0, 0, 0, 0, 0, 0, 0, 0, 0, 32610, 0, 40281, 29359, 0, 0, 0, 0, 0, 0, 0, 0, 0, 0, 0, 0, 43998, 0, 19550, 0, 0, 0, 0, 0, 881876624, 0, 0, 925477207, 0, 0, 0, 1219144730, 0, 36555, 0, 0, 0, 0, 0, 0, 0, 0, 0, 45039, 18825],[0, 0, 0, 36506, 0, 24357287, 0, 0, 35698, 0, 0, 0, 28522, 0, 0, 0, 0, 0, 40563, 0, 41592, 0, 0, 0, -1, 0, 0, 19535, 0, 0, 0, 15593, 37454, 0, 0, 35590, 0, 0, 0, 0, 0, 0, 0, 34517, 0, 0, 0, 0, 0, 34934, 0, 0, 36991, 46310, 29049, 0, 27161, 0, 0, 0, 0, 0, 40327, 0, 0, 0, 0, 0, 0, 0, 0, 0, 0, 27782, 0, 0, 45640, 22555, 0, 0, 0, 0, 0, 0, 0, 0, 0, 0, 0, 0, 37192, 0],[0, 0, 0, 0, 0, 0, 0, 0, 0, 0, 0, 0, 0, 0, 0, 39610, 0, 0, 38799, 0, 0, 0, 0, 0, 0, -1, 558013833, 0, 0, 45212, 37692, 0, 0, 42426, 0, 0, 0, 0, 0, 0, 0, 31653, 0, 0, 0, 0, 0, 0, 0, 0, 0, 0, 0, 44826, 18796, 0, 0, 0, 0, 0, 0, 0, 33206, 0, 0, 28682, 0, 21434, 0, 0, 0, 0, 6964, 42702, 0, 0, 43682, 0, 0, 0, 0, 0, 41080, 0, 30378, 34187, 45800, 0, 0, 0, 0, 0],[0, 0, 24899, 0, 0, 0, 0, 41876, 0, 0, 0, 0, 0, 178602707, 0, 43375, 0, 0, 29835, 26553, 0, 40588, 0, 0, 0, 558013833, -1, 13019, 0, 0, 0, 19040, 0, 0, 21358, 43109, 0, 0, 0, 0, 0, 0, 0, 0, 0, 0, 0, 0, 0, 0, 0, 34571, 0, 0, 0, 0, 0, 33986, 43006, 0, 0, 15850, 0, 43814, 0, 0, 0, 0, 0, 0, 34909, 8068, 12817, 0, 0, 39124, 8953, 13676, 0, 0, 36673, 29607, 33039, 0, 0, 0, 31366, 0, 23470, 16231, 33956, 29583],[27284, 32038, 37165, 0, 478266090, 0, 0, 32517, 0, 0, 0, 39709, 24441, 25003, 30663, 0, 0, -1724710845, 43559, 0, 0, 16598, 0, 0, 19535, 0, 13019, -1, 23054, 35779, 0, 0, 0, 31450, 0, 32212, 0, 0, 0, 0, 0, 0, 0, 0, 0, 0, 0, 0, 0, 0, 28547, 0, 0, 38167, 0, 34350, 0, 0, 1914365444, 0, 0, 0, 45996, 0, 38429, 0, 19650, 45962, 0, 0, 32716, 0, 17096, 43988, 0, 36163, 0, 0, 0, 1634062047, 0, 493959864, 0, 24664, 0, 0, 44100, 0, 36479, 0, 0, 0],[0, 0, 0, 0, 0, 8731, 0, -1421322972, 1136133111, 0, 0, 0, 0, 3589, 0, 0, 0, 33260, 27670, 0, 0, 0, 0, 0, 0, 0, 0, 23054, -1, 0, 0, 0, 0, 0, 0, 0, 2876, 0, 0, 0, 45077, 0, 41581, 0, 0, 0, 22305, 22469, 0, 0, 0, 38393, 0, 35365, 0, 0, 0, 0, 0, 0, 0, 0, 0, 41357, 11079, 0, 0, 0, 0, 0, 0, 0, 32162, 0, 30438, 0, 0, 0, 0, 29992, 0, 0, 0, 0, 26852, 28469, 43589, 0, 0, 0, 0, 0],[20556, 0, 0, 0, 0, 0, 0, 0, 0, 44407, 0, 8396, 0, 0, 0, 0, 20730, -1791066245, 0, 44737, 0, 0, 0, 0, 0, 45212, 0, 35779, 0, -1, 0, 0, 0, 35640, 0, 12559, 0, 0, 0, 3067, 0, 0, 0, 35879, 0, 0, 0, 0, 0, 0, 0, 42151, 0, 0, 0, 9619, 0, 0, 8049, 0, 0, 0, 0, 44174, 0, 0, 0, 0, 1272234213, 0, 23847, 10294, 0, 0, 0, 0, 0, 0, 0, 0, 0, 0, 0, 0, 0, 494408931, 35552, 36901, 0, 0, 0, 0],[-787988707, 19934, 0, 733466156, 44837, 16063, 0, 0, 0, 0, 0, 0, 0, 0, 0, 0, 0, 14119, 0, 0, 0, 8924, 0, 32037, 0, 37692, 0, 0, 0, 0, -1, 31298, 32665, 38274, 0, 0, 42649, 0, 0, 22933, 0, 0, 0, 0, 0, 0, 29246, 0, 0, 0, 0, 16702, 0, 30603, 0, 0, 0, 81186453, 0, 0, 0, 43049, 0, 0, 0, 0, 0, 20203, 0, 0, 0, 0, 40123, 0, 0, 0, 0, 0, 0, 0, 0, 0, 0, 0, 0, 0, 0, 35614, 0, 0, 0, 0],[0, 37980, 0, 0, 0, 0, 0, 0, 0, 0, 0, 156031079, 17188, 0, 0, 0, 0, 0, 0, 37526, 35954, 0, 0, 0, 15593, 0, 19040, 0, 0, 0, 31298, -1, 0, 26970, 0, 0, 0, 0, 37675, 0, 0, 0, 0, 44798, 0, 33142, 0, 0, 0, 0, 0, 0, 46041, 0, 0, 0, 0, 43152, 45508, 0, 8956, 0, 21671, 0, 38160, 0, 36783, 0, 31145, 0, 0, 0, 0, 0, 33358, 0, 37795, 13725, 0, 0, 0, 0, 21522, 0, 0, 31765, 0, 0, 12103, 456745836, 0, 0],[43294, 0, 0, 0, 1644630441, 16373, 37999, 35870, 0, 0, 30403, 0, 0, 0, 0, 0, 0, -1697998334, 9005, 0, 0, 0, 0, 0, 37454, 0, 0, 0, 0, 0, 32665, 0, -1, 9128, 31821, 0, 0, 13445, 0, 0, 0, 0, 0, 0, 0, 38389, 43847, 0, 0, 0, 0, 0, 0, 0, 0, 0, 0, 0, 0, 31647, 0, 0, 0, 0, 0, 543825363, 0, 1544, 0, 0, 0, 0, 0, 43384, 0, 37364, 32240, 0, 0, 0, 0, 0, 0, 0, 36854, 0, 0, 0, 0, 0, 0, 0],[0, 0, 20269, 0, 0, 0, 0, 0, 0, 0, 0, 42775, 0, 0, 0, 35579, 0, 36522, 0, -1880298280, 31152, 0, 0, 6080, 0, 42426, 0, 31450, 0, 35640, 38274, 26970, 9128, -1, 0, 0, 43549, 31924, 0, 0, 0, 0, 0, 0, 0, 0, 46329, 0, 0, 0, 0, 45454, 0, 0, 0, 0, 43038, 45768, 0, 0, 0, 0, 0, 0, 0, 0, 0, 0, 0, 0, 0, 0, 45830, 0, 0, 0, 0, 0, 0, 0, 45679, 0, 0, 0, 0, 0, 0, 0, 0, 37308, 0, 0],[0, 35727, 0, 1558529487, 0, 0, 0, 0, 26758, 0, 0, 0, 0, 0, 0, 0, 0, 0, 0, 43875, 0, 0, 38842, 0, 0, 0, 21358, 0, 0, 0, 0, 0, 31821, 0, -1, 0, 0, 0, 0, 0, 0, 0, 13794, 0, 24964, 0, 0, 45770, 38020, 0, 33923, 0, 0, 33609, 0, 0, 0, 0, 21554, 44837, 0, 14916, 0, 39462, 0, 38928, 35370, 0, 0, 0, 0, 25496, 0, 0, 0, 0, 37376, 0, 0, 0, 34571, 0, 43298, 0, 0, 41398, 0, 0, 0, 0, 0, 0],[0, 0, 0, 42006, 0, 0, 0, 518883421, 41619, 0, 0, 0, 0, 0, 28498, 0, 0, 30802, 0, 0, 0, 0, 0, 0, 35590, 0, 43109, 32212, 0, 12559, 0, 0, 0, 0, 0, -1, 28015, 0, 35886, 0, 0, 0, 0, 0, 0, 0, 0, 0, 25353, 28566, 0, 0, 0, 0, 0, 0, 0, 0, 0, 0, 0, 0, 0, 0, 35747, 0, 27226, 43773, 0, 0, 31734, 0, 0, 0, 0, 0, 8676, 0, 36439, 0, 0, 36713, 13432, 0, 0, 0, 0, 0, 0, 27537, 0, 19521],[0, 0, 0, 0, 0, 14112, 0, 0, 1246207570, 46298, 0, 45665, 0, 0, 41996, 39744, 0, 0, 0, 21796, 29111, 0, 36210, 0, 0, 0, 0, 0, 2876, 0, 42649, 0, 0, 43549, 0, 28015, -1, 0, 0, 16808, 0, 0, 0, 35849, 0, 45549, 0, 32486, 39140, 0, 0, 0, 0, 0, 0, 0, 0, 0, 0, 0, 0, 36554, 46167, 0, 46009, 0, 0, 22487, 42369, 45975, 0, 0, 0, 0, 0, 0, 26718, 0, 0, 0, 0, 0, 0, 0, 0, 0, 28648, 0, 0, 0, 0, 0],[34727, 0, 0, 0, 0, 0, 38179, 0, 43136, 0, 37836, 0, 0, 0, 0, 0, 39178, -1653020665, 0, 34900, 1861023455, 0, 0, 42697, 0, 0, 0, 0, 0, 0, 0, 0, 13445, 31924, 0, 0, 0, -1, 0, 28483, 38558, 0, 0, 41941, 40626, 5779, 0, 0, 0, 0, 0, 0, 0, 0, 0, 0, 0, 0, 0, 0, 0, 0, 0, 0, 0, 42478, 28550, 44401, 0, 0, 0, 41751, 0, 0, 0, 0, 0, 30527, 0, 0, 576789487, 11164, 0, 45790, 0, 0, 0, 0, 0, 41273, 0, 0],[0, 14031, 0, 0, 24772, 22975, 0, 0, 30276, 33724, 0, -1076689013, 0, 0, 0, 37892, 0, 43957, 0, 0, 25658308, 25715, 0, 0, 0, 0, 0, 0, 0, 0, 0, 37675, 0, 0, 0, 35886, 0, 0, -1, 0, 0, 0, 1114015396, 0, 0, 0, 44824, 0, 0, 0, 0, 0, 0, 0, 16126, 43954, 1861064109, 0, 0, 0, 0, 12255, 31734, 0, 0, 0, 0, 0, 0, 32782, 0, 0, 0, 0, 32460, 0, 0, 0, 15397, 0, 0, 38040, 41432, 0, 40144, 0, 0, 27410, 0, 0, 0, 0],[0, 36579, 36668, 0, 0, 0, 0, 0, 39387, 28005, 0, -510081308, 0, 0, 26341, 12305, 34936, 0, 41514, 0, 0, 0, 33806, 0, 0, 0, 0, 0, 0, 3067, 22933, 0, 0, 0, 0, 0, 16808, 28483, 0, -1, 0, 0, 0, 0, 0, 0, 44406, 0, 0, 6429, 0, 0, 0, 0, 0, 30618, 0, 0, 36364, 0, 0, 0, 0, 0, 0, 0, 0, 0, 0, 0, 0, 0, 0, 0, 0, 0, 0, 0, 0, 0, 0, 0, 0, 0, 0, 39223, 0, 41100, 25041, 0, 0, 0],[0, 42509, 42713, 0, 0, 0, 0, 0, 0, 33601, 2065373470, 39259, 0, 42932, 0, 0, 0, 0, 0, 0, 0, 0, 0, 0, 0, 0, 0, 0, 45077, 0, 0, 0, 0, 0, 0, 0, 0, 38558, 0, 0, -1, 31817, 0, 0, 0, 0, 0, 0, 7628, 0, 0, 0, 0, 0, 0, 0, 0, 36166, 0, 10596, 0, 0, 45305, 28772, 0, 16952, 0, 0, 29772, 0, 0, 0, 0, 0, 0, 0, 0, 0, 0, 0, 0, 0, 42870, 0, 0, 0, 0, 0, -1267574901, 0, 0, 0],[0, 34293, 0, 54005600, 0, 0, 0, 13058, 39732, 30224, 0, 0, 0, 0, 0, 45811, 32979, 0, 41463, 0, 18447, 46340, 0, 0, 0, 31653, 0, 0, 0, 0, 0, 0, 0, 0, 0, 0, 0, 0, 0, 0, 31817, -1, 0, 0, 0, 0, 0, 3831, 0, 0, 0, 0, 0, 34340, 0, 0, 0, 0, 32860, 0, 0, 0, 0, 0, 0, 0, 21151, 0, 0, 34129, 0, 0, 0, 0, 0, 0, 0, 0, 42525, 30799, 0, 46093, 42480, 0, 35500, 0, 0, 19416, 0, 0, 0, 44556],[0, 0, 0, 0, 45781, 0, 5177, 0, 0, 22152, 0, 0, 0, 0, 0, 0, 0, 0, 0, 0, 0, 0, 0, 0, 0, 0, 0, 0, 41581, 0, 0, 0, 0, 0, 13794, 0, 0, 0, 1114015396, 0, 0, 0, -1, 0, 0, 0, 0, 30638, 0, 0, 0, 43323, 0, 0, 0, 24364, 33898, 0, 0, 0, 0, 0, 7728, 0, 0, 41537, 0, 23739, 0, 0, 0, 0, 0, 0, 0, 28113, 0, 0, 0, 0, 0, 45295, 0, 0, 6989, 0, 41106, 4216, 0, 42007, 0, 26106],[0, 0, 0, 0, 0, 37414, 0, -1074686785, 11617, 8195, 0, 0, 0, 19545, 23214, 0, 0, 38749, 0, 0, 0, 0, 0, 0, 34517, 0, 0, 0, 0, 35879, 0, 44798, 0, 0, 0, 0, 35849, 41941, 0, 0, 0, 0, 0, -1, 0, 0, 0, 0, 0, 33663, 0, 0, 0, 45060, 22802, 31835, 0, 0, 0, 0, 669959646, 22456, 0, 0, 0, 0, 435939092, 0, 0, 0, 0, 0, 0, 0, 35136, 16143, 3341, 0, 0, 32708, 21264, 0, 0, 0, 0, 0, 0, 21217, 0, 0, 0, 0],[1979174122, 0, 0, -776658540, 43675, 0, 20952, 0, 0, 29249, 0, 0, 0, 0, 0, 0, 44668, 0, 0, 27767, 0, 0, 0, 0, 0, 0, 0, 0, 0, 0, 0, 0, 0, 0, 24964, 0, 0, 40626, 0, 0, 0, 0, 0, 0, -1, 0, 0, 0, 0, 0, 35517, 0, 0, 29042, 0, 0, 0, 40248, 0, 0, 0, 0, 13152, 0, 0, 40521, 0, 0, 0, 39383, 0, 0, 0, 26155, 0, 0, 0, 0, 0, 28661, 0, 43988, 0, 35395, 0, 0, 0, 0, 0, 0, 0, 0],[0, 0, 0, 0, 0, 10883, 1890523461, 0, 0, 0, 0, 0, 0, 0, 0, 23637, 33180, 13569, 0, 0, 0, 0, 0, 0, 0, 0, 0, 0, 0, 0, 0, 33142, 38389, 0, 0, 0, 45549, 5779, 0, 0, 0, 0, 0, 0, 0, -1, 0, 0, 0, 0, 0, 0, 33062, 0, 0, 0, 0, 21596, 0, 0, 42666, 38067, 0, 31242, 0, 9005, 0, 0, 0, 0, 0, 0, 0, 0, 0, 0, 0, 0, 0, 21946, 0, 0, 0, 946178779, 0, 30566, 25274, 0, 0, 0, 0, 0],[0, 0, 0, 21143, 0, 678780329, 0, 39579, 0, 0, 31984, 0, 27700, 0, 0, 0, 0, 0, 41698, 0, 0, 0, 0, 0, 0, 0, 0, 0, 22305, 0, 29246, 0, 43847, 46329, 0, 0, 0, 0, 44824, 44406, 0, 0, 0, 0, 0, 0, -1, 0, 0, 0, 39976, 0, 0, 0, 0, 0, 38714, 0, 0, 0, 18905, 23283, 42308, 0, 16419, 39429, 0, 24164, 0, 0, 0, 0, 0, 0, 0, 0, 0, 0, 0, 0, 0, 0, 0, 0, 0, 0, 43535, 0, 1040598816, 20310, 0, 0],[0, 0, 0, 0, 0, 44737, 438312964, 0, 0, 0, 25822, 0, 0, 31669, 0, 44938, 0, 0, 0, 0, 0, 0, 0, 32610, 0, 0, 0, 0, 22469, 0, 0, 0, 0, 0, 45770, 0, 32486, 0, 0, 0, 0, 3831, 30638, 0, 0, 0, 0, -1, 0, 0, 0, 0, 0, 0, 0, 0, 0, 38689, 0, 0, 27625, 0, 0, 0, 0, 0, 0, 0, 0, 0, 37658, 0, 0, 0, 14034, 0, 0, 0, 32705, 0, 0, 0, 19618, 0, 0, 0, 31977, 0, 0, 39044, 0, 0],[37284, 0, 0, 0, 0, 0, 0, 0, 0, 0, 0, 29087, 0, 17812, 0, 0, 0, 0, 0, 0, 0, 19287, 0, 0, 0, 0, 0, 0, 0, 0, 0, 0, 0, 0, 38020, 25353, 39140, 0, 0, 0, 7628, 0, 0, 0, 0, 0, 0, 0, -1, 0, 30278, 0, 0, 0, 0, 0, 0, 20749, 1637352413, 40359, 0, 0, 0, 42154, 0, 0, 0, 36977, 0, 25508, 0, 0, 0, 11202, 0, 0, 0, 0, 0, 13803, 0, 0, 8941, 30973, 0, 0, 0, 37225, 0, 0, 0, 5974],[0, 0, 0, 41393, 41517, 2135553700, 0, 25856, 0, 34427, 0, 29361, 31025, 0, 0, 0, 0, 0, 0, 0, 0, 0, 18943, 40281, 34934, 0, 0, 0, 0, 0, 0, 0, 0, 0, 0, 28566, 0, 0, 0, 6429, 0, 0, 0, 33663, 0, 0, 0, 0, 0, -1, 0, 0, 0, 0, 28606, 9504, 0, 0, 0, 0, 0, 0, 0, 0, 0, 0, 0, 0, 0, 8070, 0, 0, 0, 0, 0, 0, 0, 0, 0, 38426, 0, 0, 0, 0, 0, 0, 0, 0, 0, 0, 0, 0],[0, 0, 17880, 0, 0, 45825, 17112613, 31619, 0, 0, 0, 0, 0, 0, 30687, 10455, 0, 0, 28397, 0, 0, 45933, 21988, 29359, 0, 0, 0, 28547, 0, 0, 0, 0, 0, 0, 33923, 0, 0, 0, 0, 0, 0, 0, 0, 0, 35517, 0, 39976, 0, 30278, 0, -1, 0, 0, 0, 0, 40464, 0, 0, 0, 0, 0, 0, 0, 0, 0, 0, 0, 0, 0, 0, 0, 24107, 35960, 0, 0, 0, 33302, 35645, 0, 0, 37189, 0, 33740, 0, 0, 0, 0, 0, 21682, 0, 0, 0],[0, 0, 0, 0, 0, 0, 41305, 0, 0, -2118840446, 0, 0, 0, 0, 0, 13615, 0, 0, 1125828859, 30873, 0, 0, 0, 0, 0, 0, 34571, 0, 38393, 42151, 16702, 0, 0, 45454, 0, 0, 0, 0, 0, 0, 0, 0, 43323, 0, 0, 0, 0, 0, 0, 0, 0, -1, 0, 17620, 0, 0, 0, 0, 0, 0, 0, 0, 0, 0, 0, 0, 0, 0, 0, 0, 0, 0, 0, 0, 43318, 0, 0, 0, 18669, 39572, 0, 0, 0, 0, 0, 0, 0, 0, 0, 0, 0, 0],[28951, 29511, 0, 0, 0, 9554, 37161, 0, 0, 0, 41152, 0, 0, 0, 0, 0, 0, 0, 43574, 0, 456257436, 36400, 34777, 0, 36991, 0, 0, 0, 0, 0, 0, 46041, 0, 0, 0, 0, 0, 0, 0, 0, 0, 0, 0, 0, 0, 33062, 0, 0, 0, 0, 0, 0, -1, 0, 1000006863, 0, 0, 40990, 36853, 42136, 44760, 0, 0, 0, 0, 0, 0, 0, 0, 0, 0, 0, 29111, 0, 28366, 0, 0, 0, 0, 0, 0, 0, 44491, 0, 0, 0, 0, 0, 0, 26548, 585816102, 0],[0, 0, 0, 0, 0, 0, 0, 42716, 0, 0, 0, 29220, 0, 31721, 0, 43102, 0, 44905, 0, 31637, 0, 829336277, 0, 0, 46310, 44826, 0, 38167, 35365, 0, 30603, 0, 0, 0, 33609, 0, 0, 0, 0, 0, 0, 34340, 0, 45060, 29042, 0, 0, 0, 0, 0, 0, 17620, 0, -1, 0, 0, 0, 0, 0, 0, 0, 0, 0, 0, 0, 0, 18391, 0, 0, 0, 0, 43093, 0, 0, 0, 0, 0, 39781, 27929, 0, 33280, 0, 0, 0, 0, 0, 40406, 0, 0, 0, 0, 0],[38236, 0, 0, 0, 0, 38317, 0, 0, 0, 0, 0, 40566, 0, 0, 0, 0, 0, -1166474701, 0, 0, 0, 31000, 0, 0, 29049, 18796, 0, 0, 0, 0, 0, 0, 0, 0, 0, 0, 0, 0, 16126, 0, 0, 0, 0, 22802, 0, 0, 0, 0, 0, 28606, 0, 0, 1000006863, 0, -1, 0, 0, 0, 0, 0, 0, 0, 0, 0, 0, 0, 32501, 0, 0, 32660, 0, 0, 38135, 31298, 0, 26115, 0, 0, 0, 0, 0, 0, 7541, 0, 0, 22551, 0, 0, 34331, 0, 0, 0],[41730, 0, 0, 0, 680167087, 0, 0, 0, 0, 44867, 42009, 19292, 41568, 0, 24970, 0, 0, 0, 18994, 14385, 0, 0, 0, 0, 0, 0, 0, 34350, 0, 9619, 0, 0, 0, 0, 0, 0, 0, 0, 43954, 30618, 0, 0, 24364, 31835, 0, 0, 0, 0, 0, 9504, 40464, 0, 0, 0, 0, -1, 0, 0, 0, 0, 25077, 0, 0, 0, 0, 0, 37934, 0, 0, 0, 0, 26628, 23729, 0, 0, 21033, 0, 0, 20658, 0, 0, 0, 0, 19432, 0, 0, 0, 27276, 0, 19281, 0, 0],[0, 16532, 0, 0, 0, 0, 38210, 0, 0, 0, 0, 0, 33387, 0, 0, 0, 0, 0, 0, 14370, 0, 0, 16089, 0, 27161, 0, 0, 0, 0, 0, 0, 0, 0, 43038, 0, 0, 0, 0, 1861064109, 0, 0, 0, 33898, 0, 0, 0, 38714, 0, 0, 0, 0, 0, 0, 0, 0, 0, -1, 0, 0, 0, 0, 27490, 0, 0, 0, 31685, 0, 0, 0, 0, 37954, 0, 0, 0, 0, 0, 0, 0, 0, 0, 0, 38790, 0, 0, 10467, 28434, 0, 0, 40769, 0, 0, 0],[0, 21353, 0, 0, 19481, 0, 38788, 0, 0, 0, 0, 0, 0, 0, 0, 0, 0, 0, 37185, 18060, 0, 0, 0, 0, 0, 0, 33986, 0, 0, 0, 81186453, 43152, 0, 45768, 0, 0, 0, 0, 0, 0, 36166, 0, 0, 0, 40248, 21596, 0, 38689, 20749, 0, 0, 0, 40990, 0, 0, 0, 0, -1, 31523, 0, 0, 0, 0, 0, 0, 0, 0, 0, 0, 0, 18201, 0, 0, 0, 0, 0, 38623, 0, 0, 0, 31201, 0, 0, 42855, 0, 21970, 11624, 0, 27631, 0, 0, 0],[34388, 13002, 22049, 0, 0, 0, 9877, 0, 0, 0, 0, 0, 0, 0, 0, 0, 0, 0, 0, -1034203974, 0, 0, 0, 0, 0, 0, 43006, 1914365444, 0, 8049, 0, 45508, 0, 0, 21554, 0, 0, 0, 0, 36364, 0, 32860, 0, 0, 0, 0, 0, 0, 1637352413, 0, 0, 0, 36853, 0, 0, 0, 0, 31523, -1, 0, 0, 0, 0, 0, 33457, 0, 0, 0, 0, 46112, 0, 0, 0, 0, 17772, 0, 36440, 0, 0, 0, 0, 0, 0, 0, 0, 0, 0, 44539, 0, 23952, 0, 24811],[0, 31677, 0, 1182095456, 0, 0, 0, 0, 0, 0, 0, 0, 0, 0, 40349, 0, 0, 0, 0, 0, 0, 33441, 0, 0, 0, 0, 0, 0, 0, 0, 0, 0, 31647, 0, 44837, 0, 0, 0, 0, 0, 10596, 0, 0, 0, 0, 0, 0, 0, 40359, 0, 0, 0, 42136, 0, 0, 0, 0, 0, 0, -1, 0, 0, 26578, 0, 0, 33796, 0, 0, 0, 0, 35256, 38676, 0, 21404, 31985, 30818, 0, 0, 0, 0, 0, 35506, 21854, 0, 21551, 0, 0, 0, 9927, 34869, 0, 0],[0, 0, 0, 0, 0, 0, 0, 0, 0, 0, 0, 0, 0, 40688, 0, 0, 0, 0, 0, 0, 0, 0, 44304, 0, 0, 0, 0, 0, 0, 0, 0, 8956, 0, 0, 0, 0, 0, 0, 0, 0, 0, 0, 0, 669959646, 0, 42666, 18905, 27625, 0, 0, 0, 0, 44760, 0, 0, 25077, 0, 0, 0, 0, -1, 0, 14951, 7076, 0, 0, 0, 14458, 0, 0, 0, 29878, 0, 0, 0, 0, 0, 0, 0, 0, 0, 0, 0, 0, 25354, 44725, 0, 45797, 0, 0, 41065, 0],[0, 0, 36993, 0, 0, 20423, 1624421844, 0, 0, 0, 0, 0, 0, 0, 0, 0, 0, 0, 0, 36341, 0, 0, 0, 0, 0, 0, 15850, 0, 0, 0, 43049, 0, 0, 0, 14916, 0, 36554, 0, 12255, 0, 0, 0, 0, 22456, 0, 38067, 23283, 0, 0, 0, 0, 0, 0, 0, 0, 0, 27490, 0, 0, 0, 0, -1, 0, 0, 46093, 0, 10584, 0, 0, 0, 0, 13011, 12909, 0, 0, 43444, 0, 0, 28972, 0, 36696, 0, 0, 39078, 0, 0, 36943, 0, 46271, 0, 0, 0],[0, 0, 0, 0, 0, 0, 0, 15738, 43791, 0, 0, 29675, 0, 0, 0, 0, 0, 0, 0, 0, 0, 1899455802, 42174, 0, 40327, 33206, 0, 45996, 0, 0, 0, 21671, 0, 0, 0, 0, 46167, 0, 31734, 0, 45305, 0, 7728, 0, 13152, 0, 42308, 0, 0, 0, 0, 0, 0, 0, 0, 0, 0, 0, 0, 26578, 14951, 0, -1, 0, 25306, 0, 43785, 0, 34520, 0, 0, 0, 0, 11720, 0, 37747, 0, 0, 43544, 0, 0, 0, 0, 0, 28390, 0, 0, 0, 0, 0, 16874, 42682],[0, 26399, 0, 1545602878, 17829, 0, 45223, 13353, 0, 0, 0, 0, 0, 0, 0, 34897, 13215, 20364, 0, 21757, 0, 0, 0, 43998, 0, 0, 43814, 0, 41357, 44174, 0, 0, 0, 0, 39462, 0, 0, 0, 0, 0, 28772, 0, 0, 0, 0, 31242, 0, 0, 42154, 0, 0, 0, 0, 0, 0, 0, 0, 0, 0, 0, 7076, 0, 0, -1, 0, 0, 0, 0, 0, 0, 0, 43545, 0, 0, 0, 0, 27429, 0, 0, 0, 0, 0, 43217, 23017, 0, 27615, 0, 0, 0, 0, 0, 0],[0, 0, 46087, 0, 0, 0, 0, 0, 0, 0, 0, 0, 0, 46642945, 21590, 46330, 34963, 32542, 0, 0, 0, 44494, 0, 0, 0, 0, 0, 38429, 11079, 0, 0, 38160, 0, 0, 0, 35747, 46009, 0, 0, 0, 0, 0, 0, 0, 0, 0, 16419, 0, 0, 0, 0, 0, 0, 0, 0, 0, 0, 0, 33457, 0, 0, 46093, 25306, 0, -1, 0, 29122, 42887, 0, 0, 0, 0, 0, 33408, 31774, 39843, 0, 0, 0, 0, 0, 0, 0, 0, 0, 34079, 0, 40614, 0, 28459, 38485, 0],[6112, 0, 0, 0, 0, 39926, 22748, 0, 0, 0, 0, 18043, 0, 0, 0, 0, 0, 0, 0, 0, 0, 0, 0, 19550, 0, 28682, 0, 0, 0, 0, 0, 0, 543825363, 0, 38928, 0, 0, 42478, 0, 0, 16952, 0, 41537, 0, 40521, 9005, 39429, 0, 0, 0, 0, 0, 0, 0, 0, 0, 31685, 0, 0, 33796, 0, 0, 0, 0, 0, -1, 0, 0, 0, 0, 0, 0, 31980, 0, 0, 0, 0, 0, 0, 27901, 0, 0, 0, 0, 0, 24926, 0, 0, 0, 0, 0, 0],[0, 0, 0, 0, 0, 30923, 0, 0, 0, 0, 0, 0, 0, 0, 0, 0, 0, 0, 42768, 0, 0, 0, 0, 0, 0, 0, 0, 19650, 0, 0, 0, 36783, 0, 0, 35370, 27226, 0, 28550, 0, 0, 0, 21151, 0, 435939092, 0, 0, 0, 0, 0, 0, 0, 0, 0, 18391, 32501, 37934, 0, 0, 0, 0, 0, 10584, 43785, 0, 29122, 0, -1, 0, 0, 42715, 0, 0, 4568, 0, 8642, 44202, 0, 0, 0, 0, 0, 0, 0, 37514, 24079, 0, 38961, 0, 0, 0, 0, 27508],[0, 0, 0, 0, 0, 0, 0, 0, 16903, 0, 1213559363, 20356, 0, 0, 0, 0, 0, 0, 0, 35015, 0, 24787, 30271, 0, 0, 21434, 0, 45962, 0, 0, 20203, 0, 1544, 0, 0, 43773, 22487, 44401, 0, 0, 0, 0, 23739, 0, 0, 0, 24164, 0, 36977, 0, 0, 0, 0, 0, 0, 0, 0, 0, 0, 0, 14458, 0, 0, 0, 42887, 0, 0, -1, 0, 30099, 0, 0, 0, 0, 25886, 0, 0, 18555, 0, 0, 0, 0, 0, 0, 0, 40224, 0, 0, 0, 0, 32406, 33040],[39495, 0, 0, 0, 0, 0, 0, 31030, 0, 0, 0, 26484, 0, 36474, 0, 0, 0, 0, 0, 0, 0, 16681, 45090, 0, 0, 0, 0, 0, 0, 1272234213, 0, 31145, 0, 0, 0, 0, 42369, 0, 0, 0, 29772, 0, 0, 0, 0, 0, 0, 0, 0, 0, 0, 0, 0, 0, 0, 0, 0, 0, 0, 0, 0, 0, 34520, 0, 0, 0, 0, 0, -1, 0, 0, 0, 0, 0, 0, 0, 40454, 0, 20809, 0, 0, 0, 0, 38511, 28891, 14715, 23356, 0, 0, 0, 0, 0],[0, 13410, 0, 0, 0, 34627, 0, 0, 0, 0, 0, -2140264306, 45444, 46068, 0, 0, 0, 0, 0, 41502, 0, 12167, 0, 0, 0, 0, 0, 0, 0, 0, 0, 0, 0, 0, 0, 0, 45975, 0, 32782, 0, 0, 34129, 0, 0, 39383, 0, 0, 0, 25508, 8070, 0, 0, 0, 0, 32660, 0, 0, 0, 46112, 0, 0, 0, 0, 0, 0, 0, 42715, 30099, 0, -1, 0, 42098, 0, 0, 0, 0, 0, 0, 0, 0, 0, 0, 0, 20835, 0, 0, 0, 0, 0, 0, 0, 0],[-291598441, 0, 26192, 1965371449, 0, 0, 45175, 0, 0, 0, 0, 0, 0, 0, 0, 429759950, 0, 0, 0, 0, 0, 23891, 0, 0, 0, 0, 34909, 32716, 0, 23847, 0, 0, 0, 0, 0, 31734, 0, 0, 0, 0, 0, 0, 0, 0, 0, 0, 0, 37658, 0, 0, 0, 0, 0, 0, 0, 0, 37954, 18201, 0, 35256, 0, 0, 0, 0, 0, 0, 0, 0, 0, 0, -1, 0, 31447, 0, 14318, 0, 0, 0, 0, 0, 43075, 0, 0, 0, 0, 0, 0, 24011, 0, 0, 39005, 0],[0, 23867, 0, 0, 0, 0, 0, 0, 0, 0, 0, 0, 0, 0, 0, 0, 0, 0, 0, 0, 0, 0, 0, 881876624, 0, 0, 8068, 0, 0, 10294, 0, 0, 0, 0, 25496, 0, 0, 41751, 0, 0, 0, 0, 0, 0, 0, 0, 0, 0, 0, 0, 24107, 0, 0, 43093, 0, 26628, 0, 0, 0, 38676, 29878, 13011, 0, 43545, 0, 0, 0, 0, 0, 42098, 0, -1, 0, 34642, 45857, 0, 1719, 0, 31056, 0, 40158, 0, 0, 0, 0, 32851, 34250, 0, 0, 0, 0, 0],[0, 0, 0, 24267, 33337, 0, 0, 919537791, 0, 0, 0, 0, 0, 0, 0, 0, 0, 0, 0, 25217, 32149, 26243, 0, 0, 0, 6964, 12817, 17096, 32162, 0, 40123, 0, 0, 45830, 0, 0, 0, 0, 0, 0, 0, 0, 0, 0, 0, 0, 0, 0, 0, 0, 35960, 0, 29111, 0, 38135, 23729, 0, 0, 0, 0, 0, 12909, 0, 0, 0, 31980, 4568, 0, 0, 0, 31447, 0, -1, 0, 2088, 0, 0, 0, 37638, 0, 0, 0, 0, 0, 0, 0, 0, 0, 0, 0, 0, 44594],[0, 0, 0, 0, 0, 2407, 446908296, 0, 0, 0, 0, 0, 0, 0, 0, 0, 20516, 0, 28385, 0, 34428, 0, 43540, 0, 27782, 42702, 0, 43988, 0, 0, 0, 0, 43384, 0, 0, 0, 0, 0, 0, 0, 0, 0, 0, 0, 26155, 0, 0, 0, 11202, 0, 0, 0, 0, 0, 31298, 0, 0, 0, 0, 21404, 0, 0, 11720, 0, 33408, 0, 0, 0, 0, 0, 0, 34642, 0, -1, 0, 0, 0, 0, 0, 0, 0, 0, 0, 0, 0, 0, 0, 26464, 32237, 31946, 0, 0],[0, 35206, 0, 0, 0, 0, 0, 0, 45006, 0, 0, 0, 26610, 0, 0, 43788, 0, 0, 0, 0, 0, 0, 36425, 925477207, 0, 0, 0, 0, 30438, 0, 0, 33358, 0, 0, 0, 0, 0, 0, 32460, 0, 0, 0, 0, 35136, 0, 0, 0, 14034, 0, 0, 0, 43318, 28366, 0, 0, 0, 0, 0, 17772, 31985, 0, 0, 0, 0, 31774, 0, 8642, 25886, 0, 0, 14318, 45857, 2088, 0, -1, 0, 0, 0, 0, 0, 0, 0, 0, 42838, 0, 32883, 0, 0, 0, 0, 0, 0],[0, 27268, 35014, 0, 0, 0, 39964, 0, 0, 0, 0, 0, 0, 0, 0, 0, 0, 0, 0, 0, 0, 1478234497, 0, 0, 0, 0, 39124, 36163, 0, 0, 0, 0, 37364, 0, 0, 0, 0, 0, 0, 0, 0, 0, 28113, 16143, 0, 0, 0, 0, 0, 0, 0, 0, 0, 0, 26115, 21033, 0, 0, 0, 30818, 0, 43444, 37747, 0, 39843, 0, 44202, 0, 0, 0, 0, 0, 0, 0, 0, -1, 0, 0, 0, 38367, 29826, 0, 0, 0, 17939, 43245, 0, 44063, 0, 0, 0, 0],[36619, 0, 0, 0, 0, 0, 0, 0, 0, 0, 0, 0, 0, 0, 0, 0, 0, 0, 0, 35907, 1837785810, 11544, 35433, 0, 45640, 43682, 8953, 0, 0, 0, 0, 37795, 32240, 0, 37376, 8676, 26718, 0, 0, 0, 0, 0, 0, 3341, 0, 0, 0, 0, 0, 0, 33302, 0, 0, 0, 0, 0, 0, 38623, 36440, 0, 0, 0, 0, 27429, 0, 0, 0, 0, 40454, 0, 0, 1719, 0, 0, 0, 0, -1, 0, 0, 0, 0, 0, 0, 0, 20989, 26189, 0, 0, 17643, 0, 20197, 44968],[-1371605228, 33277, 0, 2138753782, 0, 0, 0, 0, 0, 0, 0, 0, 44518, 0, 0, 38413, 0, 36686, 0, 0, 0, 0, 19256, 0, 22555, 0, 13676, 0, 0, 0, 0, 13725, 0, 0, 0, 0, 0, 30527, 0, 0, 0, 0, 0, 0, 0, 0, 0, 0, 0, 0, 35645, 0, 0, 39781, 0, 0, 0, 0, 0, 0, 0, 0, 0, 0, 0, 0, 0, 18555, 0, 0, 0, 0, 0, 0, 0, 0, 0, -1, 43948, 28334, 0, 33569, 26170, 0, 0, 44632, 0, 0, 32531, 0, 38411, 0],[0, 0, 0, 0, 0, 0, 0, 0, 28957, 0, 0, 0, 0, 0, 0, 32471, 0, 0, 0, 0, 0, 0, 0, 1219144730, 0, 0, 0, 0, 0, 0, 0, 0, 0, 0, 0, 36439, 0, 0, 15397, 0, 0, 42525, 0, 0, 0, 0, 0, 32705, 0, 0, 0, 18669, 0, 27929, 0, 20658, 0, 0, 0, 0, 0, 28972, 43544, 0, 0, 0, 0, 0, 20809, 0, 0, 31056, 37638, 0, 0, 0, 0, 43948, -1, 0, 0, 0, 0, 0, 0, 15988, 0, 0, 0, 30582, 0, 0],[0, 0, 6590, 0, 0, 0, 0, 0, 42569, 0, 29526, 0, 0, 0, 0, 16804, 0, 0, 44751, 0, 35915, 44967, 0, 0, 0, 0, 0, 1634062047, 29992, 0, 0, 0, 0, 0, 0, 0, 0, 0, 0, 0, 0, 30799, 0, 32708, 28661, 21946, 0, 0, 13803, 38426, 0, 39572, 0, 0, 0, 0, 0, 0, 0, 0, 0, 0, 0, 0, 0, 27901, 0, 0, 0, 0, 0, 0, 0, 0, 0, 38367, 0, 28334, 0, -1, 0, 0, 42189, 21311, 0, 0, 0, 46195, 40756, 0, 0, 40535],[0, 0, 0, 0, 0, 0, 31179, 0, 0, 0, 0, 20481, 0, 0, 0, 0, 24874, 0, 0, 0, 0, 0, 0, 36555, 0, 0, 36673, 0, 0, 0, 0, 0, 0, 45679, 34571, 0, 0, 576789487, 0, 0, 0, 0, 0, 21264, 0, 0, 0, 0, 0, 0, 37189, 0, 0, 33280, 0, 0, 0, 31201, 0, 0, 0, 36696, 0, 0, 0, 0, 0, 0, 0, 0, 43075, 40158, 0, 0, 0, 29826, 0, 0, 0, 0, -1, 0, 0, 0, 0, 37851, 0, 0, 0, 0, 0, 23933],[0, 39824, 0, 0, 0, 24975, 0, 44119, 0, 10865, 0, 0, 0, 30215, 22879, 0, 0, 0, 0, 0, 0, 0, 6497, 0, 0, 0, 29607, 493959864, 0, 0, 0, 0, 0, 0, 0, 36713, 0, 11164, 38040, 0, 0, 46093, 45295, 0, 43988, 0, 0, 0, 0, 0, 0, 0, 0, 0, 0, 0, 38790, 0, 0, 35506, 0, 0, 0, 0, 0, 0, 0, 0, 0, 0, 0, 0, 0, 0, 0, 0, 0, 33569, 0, 0, 0, -1, 24586, 14571, 0, 0, 37084, 33984, 25470, 0, 0, 0],[38714, 0, 46015, 0, 0, 0, 0, 0, 0, 0, 0, 40975, 32301, 0, 0, 643960077, 0, 39189, 31474, 34855, 0, 0, 0, 0, 0, 41080, 33039, 0, 0, 0, 0, 21522, 0, 0, 43298, 13432, 0, 0, 41432, 0, 42870, 42480, 0, 0, 0, 0, 0, 19618, 8941, 0, 33740, 0, 44491, 0, 7541, 0, 0, 0, 0, 21854, 0, 0, 0, 43217, 0, 0, 0, 0, 0, 0, 0, 0, 0, 0, 0, 0, 0, 26170, 0, 42189, 0, 24586, -1, 28589, 0, 11372, 0, 0, 0, 0, 0, 0],[0, 0, 0, 0, 0, 15732, 0, 0, 0, 0, 0, 0, 0, 21124, 0, 0, 0, 0, 0, 0, 0, 0, 0, 0, 0, 0, 0, 24664, 0, 0, 0, 0, 0, 0, 0, 0, 0, 45790, 0, 0, 0, 0, 0, 0, 35395, 946178779, 0, 0, 30973, 0, 0, 0, 0, 0, 0, 19432, 0, 42855, 0, 0, 0, 39078, 0, 23017, 0, 0, 37514, 0, 38511, 20835, 0, 0, 0, 0, 42838, 0, 0, 0, 0, 21311, 0, 14571, 28589, -1, 0, 0, 0, 0, 31532, 0, 22602, 43195],[0, 6944, 39482, 0, 10538, 0, 0, 42191, 45327, 0, 0, 0, 24543, 0, 16416, 0, 0, 14687, 0, 0, 1344126627, 0, 0, 0, 0, 30378, 0, 0, 26852, 0, 0, 0, 36854, 0, 0, 0, 0, 0, 40144, 0, 0, 35500, 6989, 0, 0, 0, 0, 0, 0, 0, 0, 0, 0, 0, 0, 0, 10467, 0, 0, 21551, 25354, 0, 28390, 0, 0, 0, 24079, 0, 28891, 0, 0, 0, 0, 0, 0, 17939, 20989, 0, 0, 0, 0, 0, 0, 0, -1, 28889, 0, 40841, 0, 0, 3286, 0],[0, 0, 0, 0, 0, 0, 0, 0, 0, 8847, 0, 19224, 0, 0, 0, 25936, 0, 37949, 0, 0, 0, 0, 0, 0, 0, 34187, 0, 0, 28469, 494408931, 0, 31765, 0, 0, 41398, 0, 0, 0, 0, 39223, 0, 0, 0, 0, 0, 30566, 0, 0, 0, 0, 0, 0, 0, 0, 22551, 0, 28434, 21970, 0, 0, 44725, 0, 0, 27615, 34079, 24926, 0, 40224, 14715, 0, 0, 32851, 0, 0, 32883, 43245, 26189, 44632, 15988, 0, 37851, 0, 11372, 0, 28889, -1, 0, 0, 0, 14537, 0, 0],[0, 44880, 0, 1605729480, 0, 0, 0, 0, 0, 0, 0, 20019, 0, 0, 43896, 0, 38215, 5510, 0, 0, 0, 0, 0, 0, 0, 45800, 31366, 44100, 43589, 35552, 0, 0, 0, 0, 0, 0, 28648, 0, 0, 0, 0, 0, 41106, 0, 0, 25274, 43535, 31977, 0, 0, 0, 0, 0, 40406, 0, 0, 0, 11624, 0, 0, 0, 36943, 0, 0, 0, 0, 38961, 0, 23356, 0, 0, 34250, 0, 0, 0, 0, 0, 0, 0, 0, 0, 37084, 0, 0, 0, 0, -1, 0, 0, 0, 0, 0],[0, 0, 0, 0, 0, 0, 24486, 0, -1428999326, 0, 0, 0, 1645184561, 0, 45294, 0, 0, 0, 33748, 0, 0, 0, 0, 0, 0, 0, 0, 0, 0, 36901, 35614, 0, 0, 0, 0, 0, 0, 0, 27410, 41100, 0, 19416, 4216, 21217, 0, 0, 0, 0, 37225, 0, 0, 0, 0, 0, 0, 27276, 0, 0, 44539, 0, 45797, 0, 0, 0, 40614, 0, 0, 0, 0, 0, 24011, 0, 0, 26464, 0, 44063, 0, 0, 0, 46195, 0, 33984, 0, 0, 40841, 0, 0, -1, 0, 0, 0, 42966],[0, 0, 0, 0, 0, 0, 0, 0, 0, 0, 43571, 45313, 0, 0, 0, 0, 34062, 0, 42372, 0, 0, 0, 0, 0, 0, 0, 23470, 36479, 0, 0, 0, 12103, 0, 0, 0, 0, 0, 0, 0, 25041, -1267574901, 0, 0, 0, 0, 0, 1040598816, 0, 0, 0, 21682, 0, 0, 0, 34331, 0, 40769, 27631, 0, 9927, 0, 46271, 0, 0, 0, 0, 0, 0, 0, 0, 0, 0, 0, 32237, 0, 0, 17643, 32531, 0, 40756, 0, 25470, 0, 31532, 0, 0, 0, 0, -1, 0, 0, 0],[0, 31688, 0, 0, 0, 0, 38994, 0, 0, 0, 0, 0, 36499, 33753, 22976, 0, 0, 9617, 22359, 24719, 0, 0, 0, 0, 0, 0, 16231, 0, 0, 0, 0, 456745836, 0, 37308, 0, 27537, 0, 41273, 0, 0, 0, 0, 42007, 0, 0, 0, 20310, 39044, 0, 0, 0, 0, 26548, 0, 0, 19281, 0, 0, 23952, 34869, 0, 0, 0, 0, 28459, 0, 0, 0, 0, 0, 0, 0, 0, 31946, 0, 0, 0, 0, 30582, 0, 0, 0, 0, 0, 0, 14537, 0, 0, 0, -1, 0, 17388],[24211, 0, 0, 0, 0, 0, 0, 44645, 0, 0, 40255, 0, 25725, 8548, 38786, 0, 0, 0, 0, 0, 0, 0, 0, 45039, 37192, 0, 33956, 0, 0, 0, 0, 0, 0, 0, 0, 0, 0, 0, 0, 0, 0, 0, 0, 0, 0, 0, 0, 0, 0, 0, 0, 0, 585816102, 0, 0, 0, 0, 0, 0, 0, 41065, 0, 16874, 0, 38485, 0, 0, 32406, 0, 0, 39005, 0, 0, 0, 0, 0, 20197, 38411, 0, 0, 0, 0, 0, 22602, 3286, 0, 0, 0, 0, 0, -1, 0],[0, 0, 0, 0, 41349, 18299, 0, 0, 0, 0, 0, 0, 885638864, 0, 0, 0, 0, 0, 0, 45592, 0, 0, 0, 18825, 0, 0, 29583, 0, 0, 0, 0, 0, 0, 0, 0, 19521, 0, 0, 0, 0, 0, 44556, 26106, 0, 0, 0, 0, 0, 5974, 0, 0, 0, 0, 0, 0, 0, 0, 0, 24811, 0, 0, 0, 42682, 0, 0, 0, 27508, 33040, 0, 0, 0, 0, 44594, 0, 0, 0, 44968, 0, 0, 40535, 23933, 0, 0, 43195, 0, 0, 0, 42966, 0, 17388, 0, -1]]